HUN,8,6,674
5,49,4,8,0,24,2,60,1,4,3,51
2,1,0,4,5,35,4,43,3,10,1,95
2,77,0,89,3,67,1,31,4,74,5,81
4,39,0,1,3,8,1,20,5,79,2,67
4,38,0,78,1,84,5,70,2,25,3,27
2,46,0,9,3,38,1,7,4,72,5,69
3,62,5,92,0,48,1,87,2,19,4,46
0,54,2,5,1,36,4,92,3,61,5,26
